! r2SCAN-3c OPT TightSCF defgrid2 MORead 
#r2SCAN-3c OPT NormalSCF defgrid2 def2/J SlowConv

%moinp "ORCA-1.gbw"
%maxcore 6500
%PAL NPROCS 8 END
#%CPCM SMD TRUE
#      SMDSOLVENT "MeCN"
#END
*xyzfile 12 1  ORCA-1.xyz
